<number of tasks>
50

<cycle time>
1000

<order strength>
0.604


<task times>
1 408
2 463
3 573
4 525
5 387
6 598
7 697
8 430
9 286
10 535
11 659
12 611
13 538
14 402
15 673
16 445
17 346
18 503
19 550
20 324
21 598
22 577
23 571
24 379
25 470
26 276
27 378
28 745
29 454
30 400
31 588
32 632
33 576
34 709
35 567
36 197
37 438
38 255
39 346
40 323
41 457
42 417
43 687
44 482
45 556
46 354
47 355
48 670
49 452
50 337

<precedence relations>
1,8
2,8
3,8
4,8
5,22
6,10
6,34
6,43
7,9
7,17
7,20
8,11
8,12
8,13
8,14
9,15
9,18
11,20
11,21
12,16
12,21
13,16
13,18
13,20
14,17
14,23
15,16
15,19
15,21
16,41
17,22
18,22
19,22
20,24
20,25
20,33
21,22
21,23
22,26
22,27
22,28
22,29
22,30
22,31
22,32
22,33
23,33
23,39
24,34
24,35
25,41
25,42
26,41
28,35
29,41
31,36
31,39
32,35
33,37
35,39
35,40
37,38
37,40
38,41
39,41
40,42
40,43
41,44
41,45
41,46
41,47
41,48
43,49
46,50
49,50

<end>
